(set-logic QF_UF)
(declare-fun A0 () Bool)
(declare-fun A1 () Bool)
(declare-fun A2 () Bool)
(declare-fun A3 () Bool)
(declare-fun A4 () Bool)
(declare-fun A5 () Bool)
(declare-fun A6 () Bool)
(declare-fun A7 () Bool)
(declare-fun A8 () Bool)
(declare-fun A9 () Bool)
(declare-fun A10 () Bool)
(declare-fun A11 () Bool)
(declare-fun A12 () Bool)
(declare-fun A13 () Bool)
(declare-fun A14 () Bool)
(declare-fun A15 () Bool)
(declare-fun A16 () Bool)
(declare-fun A17 () Bool)
(declare-fun A18 () Bool)
(declare-fun A19 () Bool)
(declare-fun A20 () Bool)
(declare-fun A21 () Bool)
(declare-fun A22 () Bool)
(declare-fun A23 () Bool)
(declare-fun A24 () Bool)
(assert (let ((.def_0 (not A7))) (let ((.def_1 (or A14 .def_0))) (let ((.def_2 (not A14))) (let ((.def_3 (not A17))) (let ((.def_4 (or .def_3 .def_2))) (let ((.def_5 (not .def_4))) (let ((.def_6 (or .def_5 .def_1))) (let ((.def_7 (not .def_6))) (let ((.def_8 (not A8))) (let ((.def_9 (or .def_8 A19))) (let ((.def_10 (and A5 .def_3))) (let ((.def_11 (not .def_10))) (let ((.def_12 (or .def_11 .def_9))) (let ((.def_13 (not .def_12))) (let ((.def_14 (and .def_13 .def_7))) (let ((.def_15 (not .def_14))) (let ((.def_16 (not A13))) (let ((.def_17 (and .def_16 A1))) (let ((.def_18 (not .def_17))) (let ((.def_19 (not A3))) (let ((.def_20 (not A18))) (let ((.def_21 (or .def_20 .def_19))) (let ((.def_22 (not .def_21))) (let ((.def_23 (and .def_22 .def_18))) (let ((.def_24 (not .def_23))) (let ((.def_25 (= A16 A21))) (let ((.def_26 (not A5))) (let ((.def_27 (or A21 .def_26))) (let ((.def_28 (or .def_27 .def_25))) (let ((.def_29 (and .def_28 .def_24))) (let ((.def_30 (or .def_29 .def_15))) (let ((.def_31 (not .def_30))) (let ((.def_32 (not A0))) (let ((.def_33 (= .def_32 A23))) (let ((.def_34 (not .def_33))) (let ((.def_35 (and .def_20 A17))) (let ((.def_36 (or .def_35 .def_34))) (let ((.def_37 (not .def_36))) (let ((.def_38 (and A22 A21))) (let ((.def_39 (not .def_38))) (let ((.def_40 (not A21))) (let ((.def_41 (or A1 .def_40))) (let ((.def_42 (not .def_41))) (let ((.def_43 (= .def_42 .def_39))) (let ((.def_44 (or .def_43 .def_37))) (let ((.def_45 (not .def_44))) (let ((.def_46 (not A4))) (let ((.def_47 (not A24))) (let ((.def_48 (and .def_47 .def_46))) (let ((.def_49 (not .def_48))) (let ((.def_50 (and A11 A20))) (let ((.def_51 (not .def_50))) (let ((.def_52 (and .def_51 .def_49))) (let ((.def_53 (not A11))) (let ((.def_54 (= .def_53 A13))) (let ((.def_55 (not .def_54))) (let ((.def_56 (not A22))) (let ((.def_57 (= .def_56 A15))) (let ((.def_58 (or .def_57 .def_55))) (let ((.def_59 (or .def_58 .def_52))) (let ((.def_60 (not .def_59))) (let ((.def_61 (and .def_60 .def_45))) (let ((.def_62 (= .def_61 .def_31))) (let ((.def_63 (or A7 A4))) (let ((.def_64 (and A11 A18))) (let ((.def_65 (not .def_64))) (let ((.def_66 (or .def_65 .def_63))) (let ((.def_67 (= .def_32 A21))) (let ((.def_68 (not .def_67))) (let ((.def_69 (and A0 .def_40))) (let ((.def_70 (= .def_69 .def_68))) (let ((.def_71 (= .def_70 .def_66))) (let ((.def_72 (not .def_71))) (let ((.def_73 (not A1))) (let ((.def_74 (or .def_20 .def_73))) (let ((.def_75 (or .def_19 A23))) (let ((.def_76 (not .def_75))) (let ((.def_77 (or .def_76 .def_74))) (let ((.def_78 (or .def_2 A10))) (let ((.def_79 (not A2))) (let ((.def_80 (not A20))) (let ((.def_81 (and .def_80 .def_79))) (let ((.def_82 (and .def_81 .def_78))) (let ((.def_83 (not .def_82))) (let ((.def_84 (and .def_83 .def_77))) (let ((.def_85 (or .def_84 .def_72))) (let ((.def_86 (not A6))) (let ((.def_87 (or A1 .def_86))) (let ((.def_88 (and A0 A11))) (let ((.def_89 (and .def_88 .def_87))) (let ((.def_90 (or .def_47 A8))) (let ((.def_91 (not .def_90))) (let ((.def_92 (or .def_40 .def_8))) (let ((.def_93 (= .def_92 .def_91))) (let ((.def_94 (not .def_93))) (let ((.def_95 (and .def_94 .def_89))) (let ((.def_96 (not .def_95))) (let ((.def_97 (and A3 A15))) (let ((.def_98 (or A18 A15))) (let ((.def_99 (not .def_98))) (let ((.def_100 (or .def_99 .def_97))) (let ((.def_101 (not .def_100))) (let ((.def_102 (or A5 A11))) (let ((.def_103 (not A15))) (let ((.def_104 (or A12 .def_103))) (let ((.def_105 (not .def_104))) (let ((.def_106 (and .def_105 .def_102))) (let ((.def_107 (or .def_106 .def_101))) (let ((.def_108 (and .def_107 .def_96))) (let ((.def_109 (not .def_108))) (let ((.def_110 (and .def_109 .def_85))) (let ((.def_111 (or .def_110 .def_62))) (let ((.def_112 (or A17 A17))) (let ((.def_113 (not A12))) (let ((.def_114 (or A3 .def_113))) (let ((.def_115 (not .def_114))) (let ((.def_116 (or .def_115 .def_112))) (let ((.def_117 (or A24 .def_56))) (let ((.def_118 (not .def_117))) (let ((.def_119 (not A19))) (let ((.def_120 (and .def_119 A10))) (let ((.def_121 (not .def_120))) (let ((.def_122 (= .def_121 .def_118))) (let ((.def_123 (and .def_122 .def_116))) (let ((.def_124 (and .def_16 A9))) (let ((.def_125 (and A23 .def_53))) (let ((.def_126 (not .def_125))) (let ((.def_127 (and .def_126 .def_124))) (let ((.def_128 (not .def_127))) (let ((.def_129 (not A23))) (let ((.def_130 (or .def_119 .def_129))) (let ((.def_131 (not .def_130))) (let ((.def_132 (not A10))) (let ((.def_133 (and A13 .def_132))) (let ((.def_134 (not .def_133))) (let ((.def_135 (and .def_134 .def_131))) (let ((.def_136 (not .def_135))) (let ((.def_137 (or .def_136 .def_128))) (let ((.def_138 (or .def_137 .def_123))) (let ((.def_139 (not .def_138))) (let ((.def_140 (or .def_53 .def_53))) (let ((.def_141 (= A1 A20))) (let ((.def_142 (and .def_141 .def_140))) (let ((.def_143 (and A17 A21))) (let ((.def_144 (or A23 .def_40))) (let ((.def_145 (and .def_144 .def_143))) (let ((.def_146 (not .def_145))) (let ((.def_147 (or .def_146 .def_142))) (let ((.def_148 (not .def_147))) (let ((.def_149 (and A16 A12))) (let ((.def_150 (= A23 .def_40))) (let ((.def_151 (and .def_150 .def_149))) (let ((.def_152 (not .def_151))) (let ((.def_153 (or A11 A24))) (let ((.def_154 (not .def_153))) (let ((.def_155 (and .def_86 A3))) (let ((.def_156 (not .def_155))) (let ((.def_157 (and .def_156 .def_154))) (let ((.def_158 (and .def_157 .def_152))) (let ((.def_159 (and .def_158 .def_148))) (let ((.def_160 (and .def_159 .def_139))) (let ((.def_161 (not .def_160))) (let ((.def_162 (or A18 A0))) (let ((.def_163 (or A14 A18))) (let ((.def_164 (and .def_163 .def_162))) (let ((.def_165 (and .def_8 A7))) (let ((.def_166 (not .def_165))) (let ((.def_167 (or .def_86 A8))) (let ((.def_168 (or .def_167 .def_166))) (let ((.def_169 (and .def_168 .def_164))) (let ((.def_170 (not .def_169))) (let ((.def_171 (or .def_113 .def_56))) (let ((.def_172 (= .def_103 A4))) (let ((.def_173 (= .def_172 .def_171))) (let ((.def_174 (or A1 A12))) (let ((.def_175 (and .def_3 .def_103))) (let ((.def_176 (not .def_175))) (let ((.def_177 (and .def_176 .def_174))) (let ((.def_178 (and .def_177 .def_173))) (let ((.def_179 (not .def_178))) (let ((.def_180 (and .def_179 .def_170))) (let ((.def_181 (= .def_2 .def_3))) (let ((.def_182 (and A2 A8))) (let ((.def_183 (or .def_182 .def_181))) (let ((.def_184 (or .def_2 A12))) (let ((.def_185 (and .def_40 .def_113))) (let ((.def_186 (not .def_185))) (let ((.def_187 (and .def_186 .def_184))) (let ((.def_188 (and .def_187 .def_183))) (let ((.def_189 (and A21 A16))) (let ((.def_190 (or .def_32 A2))) (let ((.def_191 (not .def_190))) (let ((.def_192 (and .def_191 .def_189))) (let ((.def_193 (not .def_192))) (let ((.def_194 (and .def_8 A21))) (let ((.def_195 (and A24 .def_20))) (let ((.def_196 (or .def_195 .def_194))) (let ((.def_197 (not .def_196))) (let ((.def_198 (= .def_197 .def_193))) (let ((.def_199 (not .def_198))) (let ((.def_200 (= .def_199 .def_188))) (let ((.def_201 (or .def_200 .def_180))) (let ((.def_202 (not .def_201))) (let ((.def_203 (and .def_202 .def_161))) (let ((.def_204 (and .def_203 .def_111))) (let ((.def_205 (not A16))) (let ((.def_206 (and .def_205 A2))) (let ((.def_207 (or A13 A17))) (let ((.def_208 (and .def_207 .def_206))) (let ((.def_209 (not .def_208))) (let ((.def_210 (and A13 .def_19))) (let ((.def_211 (= .def_8 A8))) (let ((.def_212 (not .def_211))) (let ((.def_213 (or .def_212 .def_210))) (let ((.def_214 (or .def_213 .def_209))) (let ((.def_215 (= .def_16 A2))) (let ((.def_216 (or A22 A0))) (let ((.def_217 (not .def_216))) (let ((.def_218 (and .def_217 .def_215))) (let ((.def_219 (or .def_16 A24))) (let ((.def_220 (not .def_219))) (let ((.def_221 (and .def_26 .def_2))) (let ((.def_222 (not .def_221))) (let ((.def_223 (and .def_222 .def_220))) (let ((.def_224 (or .def_223 .def_218))) (let ((.def_225 (not .def_224))) (let ((.def_226 (or .def_225 .def_214))) (let ((.def_227 (or .def_0 A20))) (let ((.def_228 (and A18 A13))) (let ((.def_229 (or .def_228 .def_227))) (let ((.def_230 (not .def_229))) (let ((.def_231 (and .def_16 .def_3))) (let ((.def_232 (not .def_231))) (let ((.def_233 (and .def_86 A15))) (let ((.def_234 (not .def_233))) (let ((.def_235 (and .def_234 .def_232))) (let ((.def_236 (not .def_235))) (let ((.def_237 (and .def_236 .def_230))) (let ((.def_238 (not .def_237))) (let ((.def_239 (or .def_3 .def_53))) (let ((.def_240 (not .def_239))) (let ((.def_241 (= .def_8 .def_26))) (let ((.def_242 (not .def_241))) (let ((.def_243 (= .def_242 .def_240))) (let ((.def_244 (not .def_243))) (let ((.def_245 (or A3 A20))) (let ((.def_246 (or A18 .def_19))) (let ((.def_247 (or .def_246 .def_245))) (let ((.def_248 (not .def_247))) (let ((.def_249 (and .def_248 .def_244))) (let ((.def_250 (and .def_249 .def_238))) (let ((.def_251 (and .def_250 .def_226))) (let ((.def_252 (or .def_8 .def_205))) (let ((.def_253 (not .def_252))) (let ((.def_254 (or A6 .def_119))) (let ((.def_255 (or .def_254 .def_253))) (let ((.def_256 (or A17 .def_73))) (let ((.def_257 (or .def_132 A14))) (let ((.def_258 (and .def_257 .def_256))) (let ((.def_259 (not .def_258))) (let ((.def_260 (and .def_259 .def_255))) (let ((.def_261 (or .def_113 A11))) (let ((.def_262 (not .def_261))) (let ((.def_263 (or A8 .def_80))) (let ((.def_264 (and .def_263 .def_262))) (let ((.def_265 (= .def_16 .def_80))) (let ((.def_266 (not .def_265))) (let ((.def_267 (and .def_73 A14))) (let ((.def_268 (not .def_267))) (let ((.def_269 (and .def_268 .def_266))) (let ((.def_270 (or .def_269 .def_264))) (let ((.def_271 (or .def_270 .def_260))) (let ((.def_272 (and .def_103 A19))) (let ((.def_273 (not .def_272))) (let ((.def_274 (and .def_32 .def_205))) (let ((.def_275 (not .def_274))) (let ((.def_276 (or .def_275 .def_273))) (let ((.def_277 (not .def_276))) (let ((.def_278 (and A7 .def_47))) (let ((.def_279 (not A9))) (let ((.def_280 (and A19 .def_279))) (let ((.def_281 (not .def_280))) (let ((.def_282 (and .def_281 .def_278))) (let ((.def_283 (= .def_282 .def_277))) (let ((.def_284 (not .def_283))) (let ((.def_285 (or .def_0 .def_103))) (let ((.def_286 (not .def_285))) (let ((.def_287 (and .def_26 A0))) (let ((.def_288 (not .def_287))) (let ((.def_289 (or .def_288 .def_286))) (let ((.def_290 (or .def_32 A23))) (let ((.def_291 (not .def_290))) (let ((.def_292 (or .def_113 .def_20))) (let ((.def_293 (not .def_292))) (let ((.def_294 (and .def_293 .def_291))) (let ((.def_295 (and .def_294 .def_289))) (let ((.def_296 (or .def_295 .def_284))) (let ((.def_297 (not .def_296))) (let ((.def_298 (and .def_297 .def_271))) (let ((.def_299 (not .def_298))) (let ((.def_300 (and .def_299 .def_251))) (let ((.def_301 (not .def_300))) (let ((.def_302 (or .def_53 .def_20))) (let ((.def_303 (not .def_302))) (let ((.def_304 (or A24 A23))) (let ((.def_305 (not .def_304))) (let ((.def_306 (or .def_305 .def_303))) (let ((.def_307 (and A15 .def_73))) (let ((.def_308 (not .def_307))) (let ((.def_309 (and .def_8 .def_132))) (let ((.def_310 (not .def_309))) (let ((.def_311 (and .def_310 .def_308))) (let ((.def_312 (not .def_311))) (let ((.def_313 (and .def_312 .def_306))) (let ((.def_314 (not .def_313))) (let ((.def_315 (= A17 A15))) (let ((.def_316 (not .def_315))) (let ((.def_317 (and .def_79 A5))) (let ((.def_318 (not .def_317))) (let ((.def_319 (or .def_318 .def_316))) (let ((.def_320 (and A18 .def_47))) (let ((.def_321 (not .def_320))) (let ((.def_322 (or .def_16 A6))) (let ((.def_323 (not .def_322))) (let ((.def_324 (or .def_323 .def_321))) (let ((.def_325 (not .def_324))) (let ((.def_326 (and .def_325 .def_319))) (let ((.def_327 (not .def_326))) (let ((.def_328 (or .def_327 .def_314))) (let ((.def_329 (or A19 .def_19))) (let ((.def_330 (not .def_329))) (let ((.def_331 (and .def_47 A23))) (let ((.def_332 (not .def_331))) (let ((.def_333 (and .def_332 .def_330))) (let ((.def_334 (not .def_333))) (let ((.def_335 (or A14 .def_205))) (let ((.def_336 (not .def_335))) (let ((.def_337 (and A17 A22))) (let ((.def_338 (and .def_337 .def_336))) (let ((.def_339 (or .def_338 .def_334))) (let ((.def_340 (or A13 A4))) (let ((.def_341 (or .def_340 .def_261))) (let ((.def_342 (not .def_341))) (let ((.def_343 (= A20 .def_53))) (let ((.def_344 (= A16 .def_73))) (let ((.def_345 (not .def_344))) (let ((.def_346 (or .def_345 .def_343))) (let ((.def_347 (not .def_346))) (let ((.def_348 (and .def_347 .def_342))) (let ((.def_349 (and .def_348 .def_339))) (let ((.def_350 (and .def_349 .def_328))) (let ((.def_351 (and A19 A13))) (let ((.def_352 (and A11 A15))) (let ((.def_353 (= .def_352 .def_351))) (let ((.def_354 (not .def_353))) (let ((.def_355 (and A12 A8))) (let ((.def_356 (and .def_73 A16))) (let ((.def_357 (and .def_356 .def_355))) (let ((.def_358 (not .def_357))) (let ((.def_359 (and .def_358 .def_354))) (let ((.def_360 (and .def_26 .def_80))) (let ((.def_361 (not .def_360))) (let ((.def_362 (and .def_20 .def_32))) (let ((.def_363 (or .def_362 .def_361))) (let ((.def_364 (not .def_363))) (let ((.def_365 (= A21 A15))) (let ((.def_366 (not .def_365))) (let ((.def_367 (or A24 .def_103))) (let ((.def_368 (not .def_367))) (let ((.def_369 (or .def_368 .def_366))) (let ((.def_370 (not .def_369))) (let ((.def_371 (= .def_370 .def_364))) (let ((.def_372 (or .def_371 .def_359))) (let ((.def_373 (not .def_372))) (let ((.def_374 (and A6 A20))) (let ((.def_375 (not .def_374))) (let ((.def_376 (or .def_26 A4))) (let ((.def_377 (and .def_376 .def_375))) (let ((.def_378 (and .def_3 .def_40))) (let ((.def_379 (not .def_378))) (let ((.def_380 (or .def_129 .def_8))) (let ((.def_381 (not .def_380))) (let ((.def_382 (or .def_381 .def_379))) (let ((.def_383 (or .def_382 .def_377))) (let ((.def_384 (not .def_383))) (let ((.def_385 (and A15 .def_53))) (let ((.def_386 (= .def_385 .def_253))) (let ((.def_387 (= .def_0 A9))) (let ((.def_388 (and .def_79 .def_205))) (let ((.def_389 (and .def_388 .def_387))) (let ((.def_390 (and .def_389 .def_386))) (let ((.def_391 (not .def_390))) (let ((.def_392 (and .def_391 .def_384))) (let ((.def_393 (not .def_392))) (let ((.def_394 (and .def_393 .def_373))) (let ((.def_395 (and .def_394 .def_350))) (let ((.def_396 (not .def_395))) (let ((.def_397 (or .def_396 .def_301))) (let ((.def_398 (or .def_397 .def_204))) (let ((.def_399 (not .def_398))) .def_399)))))))))))))))))))))))))))))))))))))))))))))))))))))))))))))))))))))))))))))))))))))))))))))))))))))))))))))))))))))))))))))))))))))))))))))))))))))))))))))))))))))))))))))))))))))))))))))))))))))))))))))))))))))))))))))))))))))))))))))))))))))))))))))))))))))))))))))))))))))))))))))))))))))))))))))))))))))))))))))))))))))))))))))))))))))))))))))))))))))))))))))))))))))))))))))))))))))))))))))))))
(check-sat)
